p cnf 13 21
-9 10 4 7 6 2 13 12 11 -5 -1 -8 0
9 -4 1 5 0
-1 7 -13 0
-11 10 0
-7 -12 2 -5 -6 -11 1 -3 -10 13 0
-2 5 3 0
-6 13 10 -2 0
-3 11 1 0
-12 6 -11 0
4 -10 12 2 0
5 1 -3 12 0
-5 10 -1 -11 -6 -12 -8 -3 2 4 -9 0
13 -7 -12 -10 -8 0
-2 13 9 -1 11 4 -7 0
-7 4 -13 1 -6 8 9 12 3 2 -5 11 10 0
5 -7 -11 4 10 9 -2 -1 -3 -13 -8 -6 0
9 -11 0
7 -12 -9 3 10 -2 -5 4 -13 -11 1 -8 0
10 8 -4 5 -2 -3 7 -13 -6 11 1 0
-8 -10 -3 -5 12 -6 0
3 6 0
